NAME: line_70_3
TYPE: TSP
COMMENT: line_70_3
DIMENSION: 70
EDGE_WEIGHT_TYPE: EUC_2D
NODE_COORD_SECTION
1 0.0 465.0
2 0.0 323.0
3 0.0 668.0
4 0.0 498.0
5 0.0 64.0
6 0.0 310.0
7 0.0 552.0
8 0.0 292.0
9 0.0 661.0
10 0.0 506.0
11 0.0 40.0
12 0.0 677.0
13 0.0 292.0
14 0.0 562.0
15 0.0 401.0
16 0.0 648.0
17 0.0 523.0
18 0.0 617.0
19 0.0 211.0
20 0.0 468.0
21 0.0 596.0
22 0.0 415.0
23 0.0 653.0
24 0.0 474.0
25 0.0 390.0
26 0.0 236.0
27 0.0 252.0
28 0.0 553.0
29 0.0 220.0
30 0.0 295.0
31 0.0 441.0
32 0.0 449.0
33 0.0 477.0
34 0.0 512.0
35 0.0 527.0
36 0.0 269.0
37 0.0 95.0
38 0.0 190.0
39 0.0 50.0
40 0.0 677.0
41 0.0 26.0
42 0.0 389.0
43 0.0 110.0
44 0.0 132.0
45 0.0 295.0
46 0.0 306.0
47 0.0 98.0
48 0.0 221.0
49 0.0 47.0
50 0.0 691.0
51 0.0 493.0
52 0.0 50.0
53 0.0 78.0
54 0.0 498.0
55 0.0 346.0
56 0.0 61.0
57 0.0 146.0
58 0.0 627.0
59 0.0 344.0
60 0.0 560.0
61 0.0 231.0
62 0.0 503.0
63 0.0 352.0
64 0.0 169.0
65 0.0 407.0
66 0.0 499.0
67 0.0 304.0
68 0.0 184.0
69 0.0 402.0
70 0.0 593.0
